10
Lattice="5.957625865936279 0.0 -2.544365406036377 -0.492417555280212 6.347120287440123 -1.215569257736206 0.0 0.0 8.1754150390625" Properties=species:S:1:pos:R:3 pbc="T T T"
Na       4.42241300       5.56404244      -1.40319805
Na       4.73949743       4.45724482       3.49139728
Na       4.08068812       1.74610277       5.91840086
Na       0.97929486       1.74039660       7.24905307
Na       1.40703170       5.56042118      -0.11270813
Na       3.58875485       3.27704899       0.84819533
Sr       1.09847167       2.16083674       3.26538144
Tl       4.40977384       0.65263504       2.76635372
Tl       1.32314750       5.56967635       3.71366710
H        0.22697943       0.91532528       1.25751390
12
Lattice="6.789732933044434 0.0 -2.6610682010650635 -1.2735403783563721 7.274639998353932 -3.242805242538452 0.0 0.0 9.986047744750977" Properties=species:S:1:pos:R:3 pbc="T T T"
Tl       2.98402098       6.95606716      -2.91570325
Tl      -0.40779481       6.94959521      -1.57927756
Cs       3.17252394       2.69018465       2.55562758
Cs       4.71939229       0.24669650       6.49909062
Cs       0.67613414       3.93929411       6.17287330
Cs      -0.86944403       6.37787709       2.23783998
Si       0.22454421       3.31667389       0.03486192
Si       3.62114342       3.31192898      -1.29345452
Sb       6.01448772       2.52715450      -0.18698814
Sb       4.61880315       4.09818985      -3.73257710
Sb       2.13376687       5.28948147      -0.09070554
Sb       1.71031295       1.33915110      -1.16361083
6
Lattice="3.725954055786133 0.0 0.00049464066978544 -0.000255402329632915 4.710841648807773 0.0018142466433346272 0.0 0.0 9.539155960083008" Properties=species:S:1:pos:R:3 pbc="T T T"
Cr       0.96651189       1.03150899       8.02790085
S        0.96697803       3.38928745       7.50758498
Cr       2.82830123       3.39069785       5.97871202
I        0.96711189       3.38823871       3.97315277
S        2.83042291       1.03334759       6.49216453
I        2.83059252       1.03445334       0.48590682
8
Lattice="4.253108501434326 0.0 0.006917972583323717 -2.10719384439571 3.696589272517042 0.013583124615252018 0.0 0.0 16.074756622314453" Properties=species:S:1:pos:R:3 pbc="T T T"
Se       2.98144297       0.17674846       2.92582394
Rb       0.86100112       1.40876598       0.47486027
Dy      -1.25989472       2.64170486      12.53630886
Dy      -1.25778295       2.64149444       4.49783308
Rb       2.97964032       0.17723004       8.51382059
Se       0.86121534       1.41118635       6.06998564
Se       0.85824667       1.40868170      10.96123764
Se       2.98048445       0.17813200      14.10514891
14
Lattice="5.726560115814209 0.0 0.21262145042419434 -1.2913360068678588 7.0139844063066805 0.5032799243927002 0.0 0.0 7.061850547790527" Properties=species:S:1:pos:R:3 pbc="T T T"
Cl       1.77929789       3.76751132       5.85894188
Ca       5.07943291       0.24491375       0.83118022
Sr       4.62986364       3.65735175       5.94845568
Ca       1.37756349       5.38548796       3.67153805
Se       0.04727834       0.49858682       4.04235344
O        4.95128916       1.05353763       5.64816658
O        4.64435132       2.43419521       1.21833848
Cr       4.21573382       3.73105261       2.17395980
O        4.20995028       5.03082079       1.09438484
O       -0.42004745       3.89195536       3.22574908
Cl       2.12275293       0.11031858       1.15145382
O       -0.38176924       6.10493699       5.08172364
O        2.70445419       3.59431909       2.76904251
O        3.27865016       6.81074536       3.71867430
4
Lattice="3.996098756790161 0.0 0.0023211867082864046 0.0010854131878362716 4.161745883543678 0.010960099287331104 0.0 0.0 8.877507209777832" Properties=species:S:1:pos:R:3 pbc="T T T"
Sr       0.55684417       1.62983586       0.84899244
Hg       2.55311908       3.71236125       7.78419097
Br       2.55338367       1.62908734       3.34675622
Sr       0.55472606       1.62805281       5.84308568
12
Lattice="7.727734088897705 0.0 -0.05181039497256279 -0.005773861320478191 7.755627867083123 -0.01842004619538784 0.0 0.0 7.829390525817871" Properties=species:S:1:pos:R:3 pbc="T T T"
Cs       2.89191018       5.57189408       3.53730067
Ag       2.97713973       7.23885554       7.36587277
Ag       6.77659620       5.55344021       1.72422197
Te       5.14489476       0.02982841       1.25015738
Cs       0.85933305       1.64799273       1.79640063
Ag       4.63124361       1.75102899       3.43868708
Te       6.32689089       3.94171603       3.96435035
Cs       6.78541906       7.36019764       5.62799435
Te       1.25617488       5.07086996       0.11717232
Ag       0.75335124       3.37669320       5.75118820
Te       4.69956626       3.46535709       7.44798095
Te       2.57850833       1.29281779       5.28761579
4
Lattice="4.31361198425293 0.0 -0.0008594545652158558 0.0005105062936007538 4.312555282894313 0.0009879051940515637 0.0 0.0 8.101396560668945" Properties=species:S:1:pos:R:3 pbc="T T T"
K        2.00729659       2.99233092       4.21720452
Sn       4.16499916       0.84124263       6.69439452
Sr       2.00603079       2.99630206       0.16714504
Sn       4.16069533       0.83652162       1.73274066
